0000000000000000
0000111111111000
0000111111111000
0000000001111000
0000000001111000
0000000001111000
0000000001111000
0000000001111000
0000000001111000
0000000001111000
0001111111111111
0000000000000000
0000000000000000
0000000000000000
0000000000000000
0000000000000000